feasible solution found by trivial heuristic after 0.1 seconds, objective value 0.000000e+00
presolving:
(round 1, fast)       10787 del vars, 7242 del conss, 0 add conss, 7090 chg bounds, 0 chg sides, 0 chg coeffs, 0 upgd conss, 0 impls, 12105 clqs
(round 2, fast)       14332 del vars, 7242 del conss, 0 add conss, 7090 chg bounds, 0 chg sides, 0 chg coeffs, 0 upgd conss, 0 impls, 12105 clqs
   (0.3s) running MILP presolver
   (0.3s) MILP presolver found nothing
(round 3, exhaustive) 14332 del vars, 7264 del conss, 0 add conss, 7090 chg bounds, 22 chg sides, 0 chg coeffs, 0 upgd conss, 0 impls, 12105 clqs
(round 4, exhaustive) 14332 del vars, 7264 del conss, 0 add conss, 7090 chg bounds, 22 chg sides, 0 chg coeffs, 12083 upgd conss, 0 impls, 12105 clqs
   (0.6s) probing: 51/152 (33.6%) - 0 fixings, 0 aggregations, 0 implications, 0 bound changes
   (0.6s) probing aborted: 50/50 successive totally useless probings
   (0.8s) symmetry computation started: requiring (bin +, int -, cont +), (fixed: bin -, int +, cont -)
   (0.8s) no symmetry present
presolving (5 rounds: 5 fast, 3 medium, 3 exhaustive):
 14332 deleted vars, 7264 deleted constraints, 0 added constraints, 7090 tightened bounds, 0 added holes, 22 changed sides, 0 changed coefficients
 0 implications, 12105 cliques
presolved problem has 152 variables (152 bin, 0 int, 0 impl, 0 cont) and 12083 constraints
  12083 constraints of type <setppc>
transformed objective value is always integral (scale: 1)
Presolving Time: 0.71
transformed 1/1 original solutions to the transformed problem space

 time | node  | left  |LP iter|LP it/n|mem/heur|mdpt |vars |cons |rows |cuts |sepa|confs|strbr|  dualbound   | primalbound  |  gap   | compl. 
p 0.9s|     1 |     0 |     0 |     - |  clique|   0 | 152 |  12k|  12k|   0 |  0 |   0 |   0 | 7.106000e+03 | 7.570000e+02 | 838.71%| unknown
  1.5s|     1 |     0 |  1179 |     - |   108M |   0 | 152 |  12k|  12k|   0 |  0 |   0 |   0 | 1.431455e+03 | 7.570000e+02 |  89.10%| unknown
  1.7s|     1 |     0 |  1321 |     - |   110M |   0 | 152 |  12k|  12k|   1 |  1 |   0 |   0 | 1.426779e+03 | 7.570000e+02 |  88.48%| unknown
  1.9s|     1 |     0 |  1583 |     - |   112M |   0 | 152 |  12k|  12k|   2 |  2 |   0 |   0 | 1.420572e+03 | 7.570000e+02 |  87.66%| unknown
  2.1s|     1 |     0 |  1736 |     - |   114M |   0 | 152 |  12k|  12k|   3 |  3 |   0 |   0 | 1.419334e+03 | 7.570000e+02 |  87.49%| unknown
  2.2s|     1 |     0 |  1914 |     - |   118M |   0 | 152 |  12k|  12k|   4 |  4 |   0 |   0 | 1.418312e+03 | 7.570000e+02 |  87.36%| unknown
  2.4s|     1 |     0 |  2057 |     - |   121M |   0 | 152 |  12k|  12k|   5 |  5 |   0 |   0 | 1.417782e+03 | 7.570000e+02 |  87.29%| unknown
  2.5s|     1 |     0 |  2184 |     - |   122M |   0 | 152 |  12k|  12k|   6 |  6 |   0 |   0 | 1.417543e+03 | 7.570000e+02 |  87.26%| unknown
  2.7s|     1 |     0 |  2364 |     - |   124M |   0 | 152 |  12k|  12k|   7 |  7 |   0 |   0 | 1.417204e+03 | 7.570000e+02 |  87.21%| unknown
  2.9s|     1 |     0 |  2495 |     - |   127M |   0 | 152 |  12k|  12k|   9 |  8 |   0 |   0 | 1.416948e+03 | 7.570000e+02 |  87.18%| unknown
  3.0s|     1 |     0 |  2613 |     - |   129M |   0 | 152 |  12k|  12k|  10 |  9 |   0 |   0 | 1.416715e+03 | 7.570000e+02 |  87.15%| unknown
  3.2s|     1 |     0 |  2767 |     - |   130M |   0 | 152 |  12k|  12k|  11 | 10 |   0 |   0 | 1.416515e+03 | 7.570000e+02 |  87.12%| unknown
  3.3s|     1 |     0 |  2812 |     - |   131M |   0 | 152 |  12k|  12k|  12 | 11 |   0 |   0 | 1.416506e+03 | 7.570000e+02 |  87.12%| unknown
  3.3s|     1 |     0 |  2875 |     - |   133M |   0 | 152 |  12k|  12k|  13 | 12 |   0 |   0 | 1.416455e+03 | 7.570000e+02 |  87.11%| unknown
  3.4s|     1 |     0 |  2909 |     - |   134M |   0 | 152 |  12k|  12k|  14 | 13 |   0 |   0 | 1.416436e+03 | 7.570000e+02 |  87.11%| unknown
 time | node  | left  |LP iter|LP it/n|mem/heur|mdpt |vars |cons |rows |cuts |sepa|confs|strbr|  dualbound   | primalbound  |  gap   | compl. 
  3.5s|     1 |     0 |  3024 |     - |   135M |   0 | 152 |  12k|  12k|  16 | 14 |   0 |   0 | 1.416302e+03 | 7.570000e+02 |  87.09%| unknown
  3.6s|     1 |     0 |  3141 |     - |   136M |   0 | 152 |  12k|  12k|  17 | 15 |   0 |   0 | 1.416086e+03 | 7.570000e+02 |  87.07%| unknown
  3.7s|     1 |     0 |  3242 |     - |   138M |   0 | 152 |  12k|  12k|  19 | 16 |   0 |   0 | 1.415906e+03 | 7.570000e+02 |  87.04%| unknown
  3.8s|     1 |     0 |  3275 |     - |   139M |   0 | 152 |  12k|  12k|  20 | 17 |   0 |   0 | 1.415873e+03 | 7.570000e+02 |  87.04%| unknown
  3.9s|     1 |     0 |  3345 |     - |   140M |   0 | 152 |  12k|  12k|  21 | 18 |   0 |   0 | 1.415801e+03 | 7.570000e+02 |  87.03%| unknown
  4.0s|     1 |     0 |  3367 |     - |   142M |   0 | 152 |  12k|  12k|  22 | 19 |   0 |   0 | 1.415770e+03 | 7.570000e+02 |  87.02%| unknown
  4.0s|     1 |     0 |  3411 |     - |   143M |   0 | 152 |  12k|  12k|  23 | 20 |   0 |   0 | 1.415746e+03 | 7.570000e+02 |  87.02%| unknown
  4.1s|     1 |     0 |  3434 |     - |   143M |   0 | 152 |  12k|  12k|  24 | 21 |   0 |   0 | 1.415732e+03 | 7.570000e+02 |  87.02%| unknown
d 4.7s|     1 |     0 |  4521 |     - |farkasdi|   0 | 152 |  12k|  12k|   0 | 23 |   0 |   0 | 1.415732e+03 | 9.790000e+02 |  44.61%| unknown
  4.8s|     1 |     0 |  4521 |     - |   143M |   0 | 152 |  12k|  12k|  24 | 23 |   0 |   0 | 1.415732e+03 | 9.790000e+02 |  44.61%| unknown
  4.8s|     1 |     0 |  4566 |     - |   143M |   0 | 152 |  12k|  12k|  25 | 24 |   0 |   0 | 1.415692e+03 | 9.790000e+02 |  44.61%| unknown
  4.9s|     1 |     0 |  4593 |     - |   143M |   0 | 152 |  12k|  12k|  26 | 25 |   0 |   0 | 1.415669e+03 | 9.790000e+02 |  44.60%| unknown
 13.5s|     1 |     2 |  4593 |     - |   144M |   0 | 152 |  12k|  12k|  26 | 25 |   0 |  19 | 1.396933e+03 | 9.790000e+02 |  42.69%| unknown
*28.2s|     7 |     2 |  6745 | 555.8 |strongbr|   4 | 152 |  12k|  12k|  26 |  1 |   2 |  96 | 1.396933e+03 | 1.022000e+03 |  36.69%|  20.62%
*30.2s|     8 |     1 |  7365 | 565.0 |strongbr|   4 | 152 |  12k|  12k|  26 |  3 |   5 | 117 | 1.396933e+03 | 1.034000e+03 |  35.10%|  22.91%
 time | node  | left  |LP iter|LP it/n|mem/heur|mdpt |vars |cons |rows |cuts |sepa|confs|strbr|  dualbound   | primalbound  |  gap   | compl. 
 79.6s|   100 |     3 | 28344 | 251.9 |   155M |  17 | 152 |  11k|  12k|  62 |  1 |  49 | 313 | 1.197268e+03 | 1.034000e+03 |  15.79%|  83.54%

SCIP Status        : problem is solved [optimal solution found]
Solving Time (sec) : 81.64
Solving Nodes      : 127
Primal Bound       : +1.03400000000000e+03 (123 solutions)
Dual Bound         : +1.03400000000000e+03
Gap                : 0.00 %
Solve Status: optimal
Solve Time: 81.66 seconds
